40
    19    12    85    69     9     2    24    64     8    95    78    33    24    82     5    30    89     8    41    13    66    69    99    45    46    17    72    90    46    55    29    15    14    40    18    91    24    81    67    93
     4     1     2     4     5     8     4    10     8     8     4     8     9     1     6     7     6     9     5     3    10     2     2     7     7     7     9     7     6     5     3     6     8     3     4     4    10     6     6     5
   316   351     0     0   308    14   512     0     0   419     0   330     0     0   357     0   275     0     0     0   536     0     0    53   139   235   199   423     0     0     0     0   423   208   550     0   297   450   372     0
